c n orig vars 145
p cnf 387 862
239 0
261 -149 0
261 -325 0
261 -115 0
261 -103 0
261 -320 0
-261 149 325 115 103 320 0
146 -149 0
146 -158 0
146 -89 0
146 -90 0
146 -159 0
-146 149 158 89 90 159 0
147 -154 0
147 -100 0
-147 154 100 0
148 -265 0
148 -264 0
-148 265 264 0
149 -260 0
149 -114 0
-149 260 114 0
150 -152 0
150 -101 0
-150 152 101 0
151 -93 0
151 -376 0
151 -94 0
151 -216 0
-151 93 376 94 216 0
-196 45 0
-196 321 0
196 -45 -321 0
153 -196 0
153 -175 0
153 -105 0
-153 196 175 105 0
154 -222 0
154 -94 0
-154 222 94 0
-155 60 0
-155 147 0
155 -60 -147 0
-156 61 0
-156 147 0
156 -61 -147 0
157 -156 0
157 -155 0
157 -88 0
-157 156 155 88 0
158 -157 0
158 -265 0
-158 157 265 0
-213 158 0
-213 59 0
213 -158 -59 0
160 -213 0
160 -210 0
160 -90 0
-160 213 210 90 0
161 -160 0
161 -315 0
-161 160 315 0
-267 360 0
-267 266 0
267 -360 -266 0
162 -169 0
162 -387 0
-162 169 387 0
163 -209 0
163 -7 0
163 -206 0
163 -10 0
163 -207 0
-163 209 7 206 10 207 0
164 -162 0
164 -79 0
164 -170 0
164 -82 0
-164 162 79 170 82 0
165 -237 0
165 -238 0
165 -119 0
165 -120 0
-165 237 238 119 120 0
-166 164 0
-166 163 0
166 -164 -163 0
-167 166 0
-167 165 0
167 -166 -165 0
168 -167 0
168 -80 0
-168 167 80 0
169 -386 0
169 -385 0
169 -81 0
-169 386 385 81 0
170 -3 0
170 -380 0
-170 3 380 0
-171 320 0
-171 92 0
171 -320 -92 0
172 -279 0
172 -195 0
172 -105 0
-172 279 195 105 0
338 -9 0
338 -337 0
338 -141 0
-338 9 337 141 0
173 -180 0
173 -177 0
173 -16 0
-173 180 177 16 0
-174 11 0
-174 14 0
174 -11 -14 0
-175 46 0
-175 321 0
175 -46 -321 0
176 -174 0
176 -179 0
176 -12 0
-176 174 179 12 0
-177 18 0
-177 17 0
177 -18 -17 0
-178 91 0
-178 320 0
178 -91 -320 0
-179 14 0
-179 13 0
179 -14 -13 0
-180 15 0
-180 18 0
180 -15 -18 0
181 -184 0
181 -183 0
181 -10 0
-181 184 183 10 0
182 -137 0
182 -186 0
182 -185 0
182 -188 0
-182 137 186 185 188 0
-183 207 0
-183 136 0
183 -207 -136 0
-184 207 0
-184 143 0
184 -207 -143 0
185 -330 0
185 -329 0
185 -2 0
-185 330 329 2 0
186 -187 0
186 -138 0
-186 187 138 0
-187 190 0
-187 189 0
187 -190 -189 0
188 -354 0
188 -258 0
-188 354 258 0
189 -355 0
189 -107 0
189 -356 0
189 -112 0
189 -353 0
-189 355 107 356 112 353 0
190 -290 0
190 -139 0
190 -291 0
190 -144 0
190 -292 0
-190 290 139 291 144 292 0
-191 71 0
-191 72 0
191 -71 -72 0
-192 19 0
-192 71 0
192 -19 -71 0
-193 75 0
-193 76 0
193 -75 -76 0
-194 70 0
-194 75 0
194 -70 -75 0
-195 46 0
-195 319 0
195 -46 -319 0
-279 45 0
-279 319 0
279 -45 -319 0
197 -194 0
197 -193 0
197 -69 0
-197 194 193 69 0
198 -192 0
198 -191 0
198 -20 0
-198 192 191 20 0
-199 143 0
-199 209 0
199 -143 -209 0
-200 67 0
-200 240 0
200 -67 -240 0
-201 74 0
-201 240 0
201 -74 -240 0
337 -164 0
337 -209 0
337 -7 0
337 -10 0
337 -207 0
-337 164 209 7 10 207 0
-202 140 0
-202 203 0
202 -140 -203 0
-203 188 0
-203 113 0
203 -188 -113 0
204 -205 0
204 -202 0
204 -2 0
-204 205 202 2 0
-205 1 0
-205 203 0
205 -1 -203 0
206 -9 0
206 -212 0
206 -141 0
-206 9 212 141 0
207 -381 0
207 -241 0
-207 381 241 0
-208 8 0
-208 162 0
208 -8 -162 0
209 -204 0
209 -9 0
-209 204 9 0
376 -217 0
376 -95 0
-376 217 95 0
-210 158 0
-210 66 0
210 -158 -66 0
212 -226 0
212 -142 0
212 -182 0
212 -2 0
212 -203 0
-212 226 142 182 2 203 0
226 -181 0
226 -9 0
-226 181 9 0
-214 136 0
-214 209 0
214 -136 -209 0
216 -221 0
216 -222 0
-216 221 222 0
217 -218 0
217 -86 0
-217 218 86 0
218 -219 0
218 -220 0
218 -94 0
-218 219 220 94 0
-219 87 0
-219 216 0
219 -87 -216 0
-220 62 0
-220 216 0
220 -62 -216 0
221 -223 0
221 -100 0
-221 223 100 0
222 -153 0
222 -104 0
-222 153 104 0
223 -224 0
223 -225 0
223 -88 0
-223 224 225 88 0
-224 61 0
-224 148 0
224 -61 -148 0
-225 60 0
-225 148 0
225 -60 -148 0
227 -58 0
227 -332 0
227 -308 0
227 -297 0
-227 58 332 308 297 0
228 -350 0
228 -345 0
228 -39 0
-228 350 345 39 0
294 -130 0
294 -312 0
294 -129 0
294 -298 0
-294 130 312 129 298 0
281 -275 0
281 -274 0
281 -39 0
-281 275 274 39 0
-229 55 0
-229 54 0
229 -55 -54 0
-230 54 0
-230 53 0
230 -54 -53 0
-231 51 0
-231 50 0
231 -51 -50 0
-232 50 0
-232 49 0
232 -50 -49 0
233 -234 0
233 -235 0
233 -43 0
-233 234 235 43 0
-234 48 0
-234 339 0
234 -48 -339 0
-235 47 0
-235 339 0
235 -47 -339 0
236 -211 0
236 -57 0
236 -227 0
236 -43 0
236 -339 0
-236 211 57 227 43 339 0
-237 341 0
-237 285 0
237 -341 -285 0
238 -244 0
238 -303 0
-238 244 303 0
239 -83 0
239 -168 0
239 -85 0
239 -84 0
-239 83 168 85 84 0
240 -68 0
240 -121 0
-240 68 121 0
241 -384 0
241 -245 0
-241 384 245 0
242 -367 0
242 -316 0
242 -23 0
-242 367 316 23 0
243 -120 0
243 -244 0
-243 120 244 0
244 -304 0
244 -301 0
244 -84 0
-244 304 301 84 0
245 -82 0
245 -169 0
-245 82 169 0
-246 122 0
-246 117 0
246 -122 -117 0
-247 117 0
-247 116 0
247 -117 -116 0
-248 295 0
-248 134 0
248 -295 -134 0
249 -248 0
249 -255 0
249 -131 0
-249 248 255 131 0
-250 126 0
-250 298 0
250 -126 -298 0
-251 127 0
-251 298 0
251 -127 -298 0
-252 292 0
-252 106 0
252 -292 -106 0
-253 292 0
-253 109 0
253 -292 -109 0
254 -253 0
254 -252 0
254 -144 0
-254 253 252 144 0
-255 295 0
-255 108 0
255 -295 -108 0
-366 65 0
-366 358 0
366 -65 -358 0
-257 185 0
-257 113 0
257 -185 -113 0
258 -371 0
258 -372 0
258 -112 0
-258 371 372 112 0
-259 64 0
-259 358 0
259 -64 -358 0
260 -358 0
260 -110 0
260 -267 0
260 -111 0
260 -351 0
-260 358 110 267 111 351 0
-329 140 0
-329 226 0
329 -140 -226 0
262 -261 0
262 -319 0
262 -102 0
262 -105 0
262 -321 0
-262 261 319 102 105 321 0
263 -104 0
263 -262 0
263 -99 0
-263 104 262 99 0
264 -269 0
264 -268 0
264 -90 0
-264 269 268 90 0
265 -176 0
265 -173 0
-265 176 173 0
266 -355 0
266 -107 0
266 -334 0
266 -112 0
266 -353 0
-266 355 107 334 112 353 0
-330 1 0
-330 226 0
330 -1 -226 0
-268 66 0
-268 159 0
268 -66 -159 0
-269 59 0
-269 159 0
269 -59 -159 0
270 -231 0
270 -232 0
270 -52 0
-270 231 232 52 0
271 -229 0
271 -230 0
271 -56 0
-271 229 230 56 0
272 -215 0
272 -278 0
272 -125 0
-272 215 278 125 0
-273 272 0
-273 32 0
273 -272 -32 0
-274 30 0
-274 344 0
274 -30 -344 0
-275 29 0
-275 344 0
275 -29 -344 0
276 -125 0
276 -282 0
-276 125 282 0
277 -44 0
277 -236 0
277 -41 0
-277 44 236 41 0
-278 28 0
-278 284 0
278 -28 -284 0
-215 27 0
-215 284 0
215 -27 -284 0
280 -271 0
280 -270 0
-280 271 270 0
373 -366 0
373 -259 0
373 -111 0
-373 366 259 111 0
282 -288 0
282 -287 0
282 -124 0
-282 288 287 124 0
283 -31 0
283 -273 0
-283 31 273 0
284 -282 0
284 -289 0
-284 282 289 0
285 -343 0
285 -344 0
285 -42 0
285 -277 0
285 -39 0
-285 343 344 42 277 39 0
286 -35 0
286 -36 0
-286 35 36 0
-287 34 0
-287 286 0
287 -34 -286 0
-288 33 0
-288 286 0
288 -33 -286 0
289 -281 0
289 -280 0
-289 281 280 0
290 -348 0
290 -145 0
-290 348 145 0
291 -145 0
291 -293 0
291 -133 0
-291 145 293 133 0
292 -258 0
292 -257 0
-292 258 257 0
293 -294 0
293 -295 0
293 -132 0
293 -131 0
293 -296 0
-293 294 295 132 131 296 0
315 -178 0
315 -171 0
315 -103 0
-315 178 171 103 0
295 -254 0
295 -145 0
-295 254 145 0
296 -135 0
296 -129 0
-296 135 129 0
312 -128 0
312 -299 0
-312 128 299 0
298 -135 0
298 -249 0
-298 135 249 0
299 -251 0
299 -250 0
299 -129 0
-299 251 250 129 0
377 -263 0
377 -98 0
-377 263 98 0
-301 26 0
-301 83 0
301 -26 -83 0
302 -382 0
302 -241 0
-302 382 241 0
303 -242 0
303 -302 0
-303 242 302 0
-304 25 0
-304 83 0
304 -25 -83 0
-305 355 0
-305 40 0
305 -355 -40 0
-306 355 0
-306 37 0
306 -355 -37 0
-307 211 0
-307 48 0
307 -211 -48 0
308 -307 0
308 -349 0
308 -43 0
-308 307 349 43 0
309 -305 0
309 -306 0
309 -112 0
-309 305 306 112 0
310 -58 0
310 -347 0
310 -308 0
310 -297 0
-310 58 347 308 297 0
-311 351 0
-311 64 0
311 -351 -64 0
-361 38 0
-361 308 0
361 -38 -308 0
313 -314 0
313 -311 0
313 -111 0
-313 314 311 111 0
-314 351 0
-314 65 0
314 -351 -65 0
-367 24 0
-367 21 0
367 -24 -21 0
-316 21 0
-316 22 0
316 -21 -22 0
159 -325 0
159 -315 0
-159 325 315 0
318 -146 0
318 -147 0
318 -96 0
318 -88 0
318 -148 0
-318 146 147 96 88 148 0
319 -94 0
319 -104 0
-319 94 104 0
320 -172 0
320 -369 0
-320 172 369 0
321 -369 0
321 -368 0
-321 369 368 0
322 -104 0
322 -328 0
322 -99 0
-322 104 328 99 0
323 -365 0
323 -158 0
323 -89 0
323 -90 0
323 -159 0
-323 365 158 89 90 159 0
324 -326 0
324 -325 0
324 -115 0
324 -103 0
324 -320 0
-324 326 325 115 103 320 0
325 -317 0
325 -313 0
-325 317 313 0
326 -319 0
326 -102 0
326 -322 0
326 -105 0
326 -321 0
-326 319 102 322 105 321 0
-327 150 0
-327 151 0
327 -150 -151 0
328 -327 0
328 -98 0
-328 327 98 0
152 -100 0
152 -318 0
152 -97 0
-152 100 318 97 0
-345 343 0
-345 30 0
345 -343 -30 0
-350 343 0
-350 29 0
350 -343 -29 0
-331 359 0
-331 266 0
331 -359 -266 0
332 -331 0
332 -63 0
-332 331 63 0
333 -336 0
333 -138 0
-333 336 138 0
-334 333 0
-334 190 0
334 -333 -190 0
335 -226 0
335 -142 0
335 -338 0
335 -2 0
335 -203 0
-335 226 142 338 2 203 0
336 -137 0
336 -335 0
336 -185 0
336 -188 0
-336 137 335 185 188 0
211 -228 0
211 -44 0
-211 228 44 0
297 -373 0
297 -309 0
-297 373 309 0
-339 297 0
-339 38 0
339 -297 -38 0
340 -44 0
340 -342 0
340 -41 0
-340 44 342 41 0
341 -284 0
341 -118 0
341 -283 0
341 -125 0
-341 284 118 283 125 0
342 -341 0
342 -344 0
342 -42 0
342 -39 0
342 -343 0
-342 341 344 42 39 343 0
343 -280 0
343 -276 0
-343 280 276 0
344 -233 0
344 -44 0
-344 233 44 0
347 -211 0
347 -57 0
347 -340 0
347 -43 0
347 -339 0
-347 211 57 340 43 339 0
-349 211 0
-349 47 0
349 -211 -47 0
351 -361 0
351 -309 0
-351 361 309 0
-352 324 0
-352 323 0
352 -324 -323 0
353 -361 0
353 -373 0
-353 361 373 0
354 -374 0
354 -375 0
354 -144 0
-354 374 375 144 0
355 -257 0
355 -354 0
-355 257 354 0
-356 359 0
-356 360 0
356 -359 -360 0
357 -352 0
357 -114 0
-357 352 114 0
358 -161 0
358 -317 0
-358 161 317 0
359 -357 0
359 -358 0
359 -110 0
359 -111 0
359 -351 0
-359 357 358 110 111 351 0
360 -310 0
360 -63 0
-360 310 63 0
-362 151 0
-362 377 0
362 -151 -377 0
363 -362 0
363 -101 0
-363 362 101 0
364 -100 0
364 -363 0
364 -97 0
-364 100 363 97 0
365 -147 0
365 -96 0
365 -364 0
365 -88 0
365 -148 0
-365 147 96 364 88 148 0
-256 325 0
-256 92 0
256 -325 -92 0
-346 325 0
-346 91 0
346 -325 -91 0
368 -346 0
368 -256 0
368 -103 0
-368 346 256 103 0
369 -198 0
369 -197 0
-369 198 197 0
-370 108 0
-370 296 0
370 -108 -296 0
-371 40 0
-371 353 0
371 -40 -353 0
-372 37 0
-372 353 0
372 -37 -353 0
317 -201 0
317 -200 0
317 -73 0
-317 201 200 73 0
-374 290 0
-374 109 0
374 -290 -109 0
-375 106 0
-375 290 0
375 -106 -290 0
348 -300 0
348 -370 0
348 -131 0
-348 300 370 131 0
-300 134 0
-300 296 0
300 -134 -296 0
-378 5 0
-378 162 0
378 -5 -162 0
379 -378 0
379 -208 0
379 -82 0
-379 378 208 82 0
-380 379 0
-380 6 0
380 -379 -6 0
381 -242 0
381 -243 0
-381 242 243 0
382 -199 0
382 -214 0
382 -10 0
-382 199 214 10 0
383 -382 0
383 -381 0
-383 382 381 0
384 -246 0
384 -247 0
384 -123 0
-384 246 247 123 0
-385 77 0
-385 4 0
385 -77 -4 0
-386 78 0
-386 77 0
386 -78 -77 0
387 -384 0
387 -383 0
-387 384 383 0
